************************************************************************
file with basedata            : cm549_.bas
initial value random generator: 19497
************************************************************************
projects                      :  1
jobs (incl. supersource/sink ):  18
horizon                       :  131
RESOURCES
  - renewable                 :  2   R
  - nonrenewable              :  2   N
  - doubly constrained        :  0   D
************************************************************************
PROJECT INFORMATION:
pronr.  #jobs rel.date duedate tardcost  MPM-Time
    1     16      0       22        0       22
************************************************************************
PRECEDENCE RELATIONS:
jobnr.    #modes  #successors   successors
   1        1          3           2   3   4
   2        5          3           5  11  13
   3        5          2           5   9
   4        5          3           6   7   8
   5        5          1          16
   6        5          2           9  12
   7        5          2          10  12
   8        5          3          11  12  13
   9        5          2          10  16
  10        5          3          11  13  14
  11        5          2          15  17
  12        5          2          15  16
  13        5          1          17
  14        5          1          17
  15        5          1          18
  16        5          1          18
  17        5          1          18
  18        1          0        
************************************************************************
REQUESTS/DURATIONS:
jobnr. mode duration  R 1  R 2  N 1  N 2
------------------------------------------------------------------------
  1      1     0       0    0    0    0
  2      1     1       7    0    6    9
         2     2       5    0    6    8
         3     3       0    3    5    8
         4     8       5    0    2    8
         5     9       0    2    2    6
  3      1     1       4    0    6    7
         2     1       0   10    6    7
         3     4       0    9    3    7
         4     4       0    9    4    6
         5     6       0    9    3    6
  4      1     1       0    7   10    8
         2     3       9    0   10    8
         3     3       0    5    9    8
         4     8       9    0    9    8
         5     8       0    4    9    8
  5      1     1      10    0    9    7
         2     2       0    7    9    5
         3     5       7    0    8    5
         4     6       0    6    8    2
         5     8       0    5    6    1
  6      1     1       6    0    8    5
         2     4       6    0    7    4
         3     5       5    0    7    3
         4     6       0    8    4    2
         5     6       5    0    4    2
  7      1     1       0    9    4    6
         2     3       6    0    4    4
         3     6       3    0    4    3
         4     8       3    0    4    2
         5     8       0    7    4    2
  8      1     2       0    8    6    4
         2     2       0    7    6    5
         3     2       8    0    5    4
         4     7       0    7    3    4
         5    10       7    0    3    4
  9      1     4       5    0   10    6
         2     4       4    0    9    7
         3     8       0    4    8    6
         4     9       2    0    5    3
         5     9       4    0    4    4
 10      1     4       0   10    6    8
         2     7       0    7    6    8
         3     7       0    8    6    7
         4     9       0    5    6    6
         5     9       7    0    6    7
 11      1     1       0    8    9    9
         2     2       2    0    7    9
         3     2       0    8    7    9
         4     6       0    7    6    9
         5     7       0    7    4    9
 12      1     1       0    6   10   10
         2     3       6    0    9   10
         3     6       5    0    8   10
         4     7       3    0    6    9
         5     9       0    5    5    9
 13      1     3       7    0    4    8
         2     4       0    6    4    8
         3     5       0    5    3    7
         4     5       6    0    3    7
         5     7       5    0    2    7
 14      1     3       0    5   10    6
         2     4       0    3   10    4
         3     7       4    0   10    4
         4     9       4    0    9    2
         5    10       0    1    9    2
 15      1     2       0    6    8    7
         2     3       5    0    8    6
         3     4       3    0    8    4
         4     5       2    0    7    4
         5     5       0    6    6    2
 16      1     2      10    0    5    7
         2     3       0    5    5    6
         3     4       8    0    4    5
         4     8       5    0    4    5
         5    10       0    1    3    4
 17      1     9       7    0    5    4
         2     9       0    4    7    4
         3    10       7    0    3    3
         4    10       0    4    5    4
         5    10       6    0    5    3
 18      1     0       0    0    0    0
************************************************************************
RESOURCEAVAILABILITIES:
  R 1  R 2  N 1  N 2
    5    7  107  103
************************************************************************
